
******************************************************************************
This program contains Ipopt, a library for large-scale nonlinear optimization.
 Ipopt is released as open source code under the Eclipse Public License (EPL).
         For more information visit http://projects.coin-or.org/Ipopt
******************************************************************************

This is Ipopt version 3.12.6, running with linear solver ma57.

Number of nonzeros in equality constraint Jacobian...:        4
Number of nonzeros in inequality constraint Jacobian.:        0
Number of nonzeros in Lagrangian Hessian.............:        6

Total number of variables............................:        4
                     variables with only lower bounds:        0
                variables with lower and upper bounds:        4
                     variables with only upper bounds:        0
Total number of equality constraints.................:        2
Total number of inequality constraints...............:        0
        inequality constraints with only lower bounds:        0
   inequality constraints with lower and upper bounds:        0
        inequality constraints with only upper bounds:        0

iter    objective    inf_pr   inf_du lg(mu)  ||d||  lg(rg) alpha_du alpha_pr  ls
   0 -1.1064370e-02 1.00e-12 5.19e-09  -1.0 0.00e+00    -  0.00e+00 0.00e+00   0
   1 -5.1922038e-03 1.39e-17 2.23e-08  -1.7 1.96e-02    -  1.00e+00 1.00e+00f  1
   2  6.1252274e-03 6.94e-18 3.00e-09  -2.5 3.19e-02    -  1.00e+00 1.00e+00f  1
   3  7.3223606e-03 1.39e-17 1.25e-10  -3.8 1.03e-02    -  1.00e+00 1.00e+00f  1
   4  7.4481734e-03 5.55e-17 5.04e-12  -5.7 2.25e-03    -  1.00e+00 1.00e+00f  1
   5  7.4590584e-03 1.39e-17 5.71e-14  -8.6 2.46e-04    -  1.00e+00 1.00e+00h  1
   6  7.3143563e-03 2.78e-17 3.85e-12 -12.9 2.08e-03    -  9.94e-01 1.00e+00h  1
   7  7.3140870e-03 5.55e-17 3.58e-10 -12.9 3.58e-06  -4.0 1.00e+00 1.00e+00h  1
   8  7.3132780e-03 5.55e-17 3.59e-10 -12.9 1.08e-05  -4.5 1.00e+00 1.00e+00h  1
   9  7.3108414e-03 0.00e+00 3.60e-10 -12.9 3.24e-05  -5.0 1.00e+00 1.00e+00h  1
iter    objective    inf_pr   inf_du lg(mu)  ||d||  lg(rg) alpha_du alpha_pr  ls
  10  7.3034439e-03 1.39e-17 3.62e-10 -12.9 9.78e-05  -5.4 1.00e+00 1.00e+00f  1
  11  7.2804292e-03 5.55e-17 3.71e-10 -12.9 3.00e-04  -5.9 1.00e+00 1.00e+00h  1
  12  7.2030032e-03 0.00e+00 4.00e-10 -12.9 9.70e-04  -6.4 1.00e+00 1.00e+00h  1
  13  6.8550102e-03 2.08e-17 5.25e-10 -12.9 3.74e-03  -6.9 1.00e+00 1.00e+00f  1
  14 -1.1333161e-02 2.08e-17 5.04e-09 -12.9 4.83e-02  -7.3 1.00e+00 1.00e+00h  1
Warning: Cutting back alpha due to evaluation error
  15 -1.6346665e-02 1.73e-18 3.97e-09 -12.9 4.86e-02  -6.9 1.00e+00 1.42e-01h  2
Warning: Cutting back alpha due to evaluation error
  16 -1.8321288e-02 2.47e-17 2.14e-09 -12.9 1.37e-02  -7.4 1.00e+00 2.51e-01h  2
  17 -1.9331126e-02 1.30e-17 2.49e-09 -12.9 1.81e-02  -7.9 1.00e+00 1.00e+00h  1
  18 -1.9362477e-02 2.56e-17 6.72e-10 -12.9 1.89e-02    -  1.00e+00 1.00e+00h  1
  19 -1.9589067e-02 6.07e-18 1.52e-10 -12.9 5.89e-03    -  1.00e+00 1.00e+00h  1
iter    objective    inf_pr   inf_du lg(mu)  ||d||  lg(rg) alpha_du alpha_pr  ls
  20 -1.9606019e-02 1.08e-17 1.48e-11 -12.9 2.28e-03    -  1.00e+00 1.00e+00h  1

Number of Iterations....: 20

                                   (scaled)                 (unscaled)
Objective...............:  -1.9606018641002920e-10   -1.9606018641002920e-02
Dual infeasibility......:   1.4805593307957831e-11    1.4805593307957831e-03
Constraint violation....:   1.0842021724855044e-17    1.0842021724855044e-17
Complementarity.........:   1.2544302822923465e-13    1.2544302822923466e-05
Overall NLP error.......:   1.4805593307957831e-11    1.4805593307957831e-03


Number of objective function evaluations             = 23
Number of objective gradient evaluations             = 21
Number of equality constraint evaluations            = 23
Number of inequality constraint evaluations          = 0
Number of equality constraint Jacobian evaluations   = 21
Number of inequality constraint Jacobian evaluations = 0
Number of Lagrangian Hessian evaluations             = 20
Total CPU secs in IPOPT (w/o function evaluations)   =      0.000
Total CPU secs in NLP function evaluations           =      0.003

EXIT: Solved To Acceptable Level.
Note: The following floating-point exceptions are signalling: IEEE_INVALID_FLAG IEEE_DIVIDE_BY_ZERO

************************ CUTEst statistics ************************


 Package used            :  IPOPT
 Problem                 :  LIN       
 # variables             =               4
 # constraints           =               2
 # objective functions   =        0.4500000E+02
 # objective gradients   =        0.2200000E+02
 # objective Hessians    =        0.2100000E+02
 # Hessian-vector prdct  =        0.0000000E+00
 # constraints functions =        0.4600000E+02
 # constraints gradients =        0.2300000E+02
 # constraints Hessians  =        0.2100000E+02
 Exit code               =               1
 Final f                 =  -0.1960602E-01
 Set up time             =            0.00 seconds
 Solve time              =            0.02 seconds


******************************************************************

System Time =       0.0060000001 s.
